100
30
19
32
9
10
23
19
31
18
25
18
16
31
14
5
3
18
32
1
11
32
5
15
6
15
16
6
5
18
13
7
16
3
16
1
14
17
21
31
17
3
14
17
6
18
31
9
31
7
13
11
17
14
19
3
31
8
1
8
18
2
16
4
1
1
2
18
31
2
11
32
3
6
5
19
3
1
2
32
12
4
15
19
20
31
3
10
32
10
31
8
1
30
26
4
12
31
20
18
3
8